\* sidsproblem *\
Minimize
OBJ: x + y
Subject To
_C1: 2 x + y >= 1
_C2: x + 100000000000000000000000000000000000000000000000000000000000000000000000000000000000000000000000000000000000000000000000000000000000000000000000000000000000000000000000000000000000000000000000000000000 y >= 1

